p cnf 103 362
1 -2 -3 0
-1 2 -3 0
1 2 3 0
-1 -2 3 0
5 -3 0
5 -4 0
3 4 -5 0
6 7 -8 0
-6 -7 -8 0
6 -7 8 0
-6 7 8 0
-9 -8 0
-9 8 0
-10 -1 -11 0
10 1 -11 0
-10 1 11 0
10 -1 11 0
12 9 0
12 11 0
-9 -11 -12 0
1 10 -13 0
-1 -10 -13 0
1 -10 13 0
-1 10 13 0
-14 12 0
-14 -13 0
-12 13 14 0
17 15 0
17 16 0
-15 -16 -17 0
6 18 -19 0
-6 -18 -19 0
6 -18 19 0
-6 18 19 0
-20 -19 0
-20 -11 0
19 11 20 0
17 -20 -21 0
-17 20 -21 0
17 20 21 0
-17 -20 21 0
-21 3 -22 0
21 -3 -22 0
-21 -3 22 0
21 3 22 0
23 14 0
23 -22 0
-14 22 -23 0
24 -5 0
24 -23 0
5 23 -24 0
-26 16 0
-26 -25 0
-16 25 26 0
28 -27 0
28 -2 0
27 2 -28 0
-26 28 -29 0
26 -28 -29 0
-26 -28 29 0
26 28 29 0
31 12 0
31 30 0
-12 -30 -31 0
7 -31 -32 0
-7 31 -32 0
7 31 32 0
-7 -31 32 0
-6 -32 -33 0
6 32 -33 0
-6 32 33 0
6 -32 33 0
-27 -3 -34 0
27 3 -34 0
-27 3 34 0
27 -3 34 0
35 2 0
35 -16 0
-2 16 -35 0
-34 -35 -36 0
34 35 -36 0
-34 35 36 0
34 -35 36 0
-33 -36 -37 0
33 36 -37 0
-33 36 37 0
33 -36 37 0
-6 -27 -38 0
6 27 -38 0
-6 27 38 0
6 -27 38 0
-39 -15 0
-39 38 0
15 -38 39 0
-37 -39 -40 0
37 39 -40 0
-37 39 40 0
37 -39 40 0
-29 40 -41 0
29 -40 -41 0
-29 -40 41 0
29 40 41 0
-42 24 0
-42 41 0
-24 -41 42 0
17 -34 -43 0
-17 34 -43 0
17 34 43 0
-17 -34 43 0
44 -34 0
44 -43 0
34 43 -44 0
-45 38 0
-45 38 0
-38 45 0
-46 11 0
-46 -45 0
-11 45 46 0
47 44 0
47 -46 0
-44 46 -47 0
-27 -34 -48 0
27 34 -48 0
-27 34 48 0
27 -34 48 0
-49 48 0
-49 -15 0
-48 15 49 0
-8 -6 -50 0
8 6 -50 0
-8 6 50 0
8 -6 50 0
-49 50 -51 0
49 -50 -51 0
-49 -50 51 0
49 50 51 0
16 -51 -52 0
-16 51 -52 0
16 51 52 0
-16 -51 52 0
53 -35 0
53 -38 0
35 38 -53 0
52 53 -54 0
-52 -53 -54 0
52 -53 54 0
-52 53 54 0
-55 -47 0
-55 -54 0
47 54 55 0
-56 18 0
-56 -32 0
-18 32 56 0
-57 -55 0
-57 -56 0
55 56 57 0
58 10 0
58 -1 0
-10 1 -58 0
-7 58 -59 0
7 -58 -59 0
-7 -58 59 0
7 58 59 0
-60 -31 0
-60 59 0
31 -59 60 0
-61 -6 0
-61 43 0
6 -43 61 0
-63 -62 0
-63 15 0
62 -15 63 0
-64 61 0
-64 63 0
-61 -63 64 0
60 64 -65 0
-60 -64 -65 0
60 -64 65 0
-60 64 65 0
57 65 -66 0
-57 -65 -66 0
57 -65 66 0
-57 65 66 0
-67 42 0
-67 -66 0
-42 66 67 0
69 68 0
69 -16 0
-68 16 -69 0
70 -67 0
70 69 0
67 -69 -70 0
2 3 -71 0
-2 -3 -71 0
2 -3 71 0
-2 3 71 0
-71 -34 -72 0
71 34 -72 0
-71 34 72 0
71 -34 72 0
-73 72 0
-73 -2 0
-72 2 73 0
74 15 0
74 -18 0
-15 18 -74 0
75 73 0
75 74 0
-73 -74 -75 0
-4 -16 -76 0
4 16 -76 0
-4 16 76 0
4 -16 76 0
-77 76 0
-77 -21 0
-76 21 77 0
-32 -3 -78 0
32 3 -78 0
-32 3 78 0
32 -3 78 0
79 45 0
79 -78 0
-45 78 -79 0
80 79 0
80 -48 0
-79 48 -80 0
-81 80 0
-81 -16 0
-80 16 81 0
82 -72 0
82 17 0
72 -17 -82 0
83 -10 0
83 82 0
10 -82 -83 0
-84 81 0
-84 83 0
-81 -83 84 0
77 -84 -85 0
-77 84 -85 0
77 84 85 0
-77 -84 85 0
86 75 0
86 -85 0
-75 85 -86 0
-87 32 0
-87 79 0
-32 -79 87 0
-88 62 0
-88 -6 0
-62 6 88 0
-17 -28 -89 0
17 28 -89 0
-17 28 89 0
17 -28 89 0
-88 -89 -90 0
88 89 -90 0
-88 89 90 0
88 -89 90 0
-91 87 0
-91 -90 0
-87 90 91 0
92 -10 0
92 -2 0
10 2 -92 0
93 -91 0
93 -92 0
91 92 -93 0
-94 -62 0
-94 -1 0
62 1 94 0
95 25 0
95 27 0
-25 -27 -95 0
38 -95 -96 0
-38 95 -96 0
38 95 96 0
-38 -95 96 0
-97 -94 0
-97 96 0
94 -96 97 0
-98 93 0
-98 -97 0
-93 97 98 0
-99 -48 0
-99 -38 0
48 38 99 0
99 -78 -100 0
-99 78 -100 0
99 78 100 0
-99 -78 100 0
101 98 0
101 100 0
-98 -100 -101 0
-86 -101 -102 0
86 101 -102 0
-86 101 102 0
86 -101 102 0
-103 70 0
-103 -102 0
-70 102 103 0
-97 19 71 -82 -73 0
-33 77 -39 0
26 62 89 103 -53 0
-10 86 101 67 -6 0
-39 74 1 -94 0
-41 8 -26 0
41 31 0
-94 -79 -44 99 -24 0
-38 83 14 -87 32 28 0
-69 -59 77 33 0
-1 64 0
-83 72 0
37 -48 0
-91 -46 37 -95 -48 70 0
56 -45 48 3 -99 0
50 56 -89 -61 0
63 64 -38 -74 0
-74 9 -73 44 62 -83 0
103 81 0
92 -14 35 -19 11 -46 0
40 2 102 -4 0
5 -77 -82 96 59 -2 0
2 -29 50 53 -60 0
-46 -24 0
-18 35 -81 -15 72 0
95 -98 74 0
-64 58 77 -91 -101 -55 0
-95 102 -65 17 -67 0
94 103 75 0
27 59 0
-50 0
-27 -93 76 -5 0
41 -54 12 -5 -26 3 0
-27 86 0
71 76 43 -103 0
-20 -91 0
44 -4 0
75 60 22 -52 0
-49 99 37 0
75 -58 -67 -26 92 0
-53 100 -94 67 75 40 0
88 75 0
31 -30 -94 2 0
-94 77 -40 0
-28 16 -38 56 -61 -48 0
18 90 30 0
25 102 0
-94 -69 -8 -37 0
6 61 -20 9 46 -67 0
-66 33 69 3 0
53 -23 -66 -68 80 0
94 61 0
-23 -4 -3 0
-65 37 96 0
-100 65 98 -4 0
-80 -60 -6 -57 94 46 0
54 69 32 30 0
-71 39 60 -50 0
5 -60 -74 -19 -100 0
28 -75 49 96 -100 0
103 0
